CMPL model generation - running

CMPL version: 1.11.0
Authors: Thomas Schleiff, Mike Steglich
Distributed under the GPLv3 

create model instance ...
write model instance ...
CMPL model generation - finished

Solver - running


Welcome to IBM(R) ILOG(R) CPLEX(R) Interactive Optimizer 12.7.1.0
  with Simplex, Mixed Integer & Barrier Optimizers
5725-A06 5725-A29 5724-Y48 5724-Y49 5724-Y54 5724-Y55 5655-Y21
Copyright IBM Corp. 1988, 2017.  All Rights Reserved.

Type 'help' for a list of available commands.
Type 'help' followed by a command name for more
information on commands.

CPLEX> Specified objective sense: MINIMIZE
Selected objective  name:  line[1]
Selected RHS        name:  RHS
Selected bound      name:  BOUND
Problem '/tmp/cmpl.T24637.mps' read.
Read time = 0.06 sec. (8.19 ticks)
CPLEX> CPXPARAM_Read_APIEncoding                        "UTF-8"
Tried aggregator 3 times.
MIP Presolve eliminated 19032 rows and 30302 columns.
MIP Presolve modified 340 coefficients.
Aggregator did 783 substitutions.
Reduced MIP has 2540 rows, 3508 columns, and 10226 nonzeros.
Reduced MIP has 3340 binaries, 0 generals, 0 SOSs, and 0 indicators.
Presolve time = 0.05 sec. (40.92 ticks)
Found incumbent of value 1810.015701 after 0.11 sec. (72.34 ticks)
Probing fixed 17 vars, tightened 0 bounds.
Probing time = 0.01 sec. (4.66 ticks)
Tried aggregator 1 time.
MIP Presolve eliminated 0 rows and 17 columns.
MIP Presolve modified 111 coefficients.
Reduced MIP has 2540 rows, 3491 columns, and 10192 nonzeros.
Reduced MIP has 3491 binaries, 0 generals, 0 SOSs, and 0 indicators.
Presolve time = 0.01 sec. (8.66 ticks)
Probing time = 0.01 sec. (2.72 ticks)
Clique table members: 6282.
MIP emphasis: balance optimality and feasibility.
MIP search method: dynamic search.
Parallel mode: none, using 1 thread.
Root relaxation solution time = 0.01 sec. (7.26 ticks)

        Nodes                                         Cuts/
   Node  Left     Objective  IInf  Best Integer    Best Bound    ItCnt     Gap

*     0+    0                         1810.0157       -4.0563           100.22%
*     0     0      integral     0      515.7806      515.7806      365    0.00%
Elapsed time = 0.16 sec. (104.00 ticks, tree = 0.00 MB, solutions = 2)

Root node processing (before b&c):
  Real time             =    0.17 sec. (105.25 ticks)
Sequential b&c:
  Real time             =    0.00 sec. (0.00 ticks)
                          ------------
Total (root+branch&cut) =    0.17 sec. (105.25 ticks)

Solution pool: 2 solutions saved.

MIP - Integer optimal solution:  Objective =  5.1578058300e+02
Solution time =    0.17 sec.  Iterations = 365  Nodes = 0
Deterministic time = 105.35 ticks  (628.22 ticks/sec)

CPLEX> Incumbent solution written to file '/tmp/cmpl.T24637.gsol'.
CPLEX> 
CMPL: Time used for model generation: 1 seconds
CMPL: Time used for solving the model: 0 seconds


Solution written to ASCII file: results/output_generated_conf_0.8/2016-11-07-4/fair-nonlinear.sol

Solver - finished
